! wB97X-D3 def2-SVP
%pal
nprocs 4
end
* xyzfile 0 1 tmp.xyz
